#######################



#######################
Set parameter TimeLimit to value 300
Set parameter SoftMemLimit to value 125
Set parameter MIPFocus to value 2
Set parameter LogFile to value 1202-MIPFocus2-Presolve2-TimeLimit300-k16x240-8.log
Set parameter Presolve to value 2
Set parameter Seed to value 8
Using license file /opt/gurobi/gurobi.lic

Gurobi Optimizer version 12.0.2 build v12.0.2rc0 (linux64 - "Ubuntu 22.04.4 LTS")
Copyright (c) 2025, Gurobi Optimization, LLC

Read MPS format model from file /miplib2010/k16x240.mps.bz2
Reading time = 0.00 seconds
k16x240: 256 rows, 480 columns, 960 nonzeros

Using Gurobi shared library /nfs/shared/static-builds/gurobi1202

CPU model: Intel(R) Xeon(R) E-2388G CPU @ 3.20GHz, instruction set [SSE2|AVX|AVX2|AVX512]
Thread count: 8 physical cores, 16 logical processors, using up to 16 threads

Non-default parameters:
TimeLimit  300
SoftMemLimit  125
MIPFocus  2
Presolve  2
Seed  8

Optimize a model with 256 rows, 480 columns and 960 nonzeros
Model fingerprint: 0x4e80885f
Variable types: 240 continuous, 240 integer (240 binary)
Coefficient statistics:
  Matrix range     [1e+00, 1e+03]
  Objective range  [1e+00, 1e+03]
  Bounds range     [1e+00, 1e+03]
  RHS range        [4e+00, 4e+02]
Found heuristic solution: objective 27117.000000
Presolve time: 0.00s
Presolved: 256 rows, 480 columns, 960 nonzeros
Variable types: 240 continuous, 240 integer (240 binary)
Root relaxation presolve removed 241 rows and 240 columns
Root relaxation presolved: 15 rows, 240 columns, 450 nonzeros


Root relaxation: objective 2.769838e+03, 16 iterations, 0.00 seconds (0.00 work units)

    Nodes    |    Current Node    |     Objective Bounds      |     Work
 Expl Unexpl |  Obj  Depth IntInf | Incumbent    BestBd   Gap | It/Node Time

     0     0 2769.83800    0   14 27117.0000 2769.83800  89.8%     -    0s
H    0     0                    11359.000000 2769.83800  75.6%     -    0s
H    0     0                    11159.000000 8116.87580  27.3%     -    0s
     0     0 8116.87580    0   26 11159.0000 8116.87580  27.3%     -    0s
H    0     0                    11003.000000 8190.91086  25.6%     -    0s
H    0     0                    10913.000000 8190.91086  24.9%     -    0s
     0     0 8571.49855    0   28 10913.0000 8571.49855  21.5%     -    0s
     0     0 8595.10166    0   26 10913.0000 8595.10166  21.2%     -    0s
     0     0 8728.37265    0   21 10913.0000 8728.37265  20.0%     -    0s
H    0     0                    10853.000000 8729.78284  19.6%     -    0s
H    0     0                    10835.000000 8779.92408  19.0%     -    0s
     0     0 8779.92408    0   32 10835.0000 8779.92408  19.0%     -    0s
     0     0 8818.14244    0   36 10835.0000 8818.14244  18.6%     -    0s
     0     0 8818.71792    0   26 10835.0000 8818.71792  18.6%     -    0s
     0     0 8925.88819    0   26 10835.0000 8925.88819  17.6%     -    0s
     0     0 8956.78165    0   37 10835.0000 8956.78165  17.3%     -    0s
     0     0 9003.34309    0   38 10835.0000 9003.34309  16.9%     -    0s
     0     0 9009.02262    0   41 10835.0000 9009.02262  16.9%     -    0s
     0     0 9067.29298    0   33 10835.0000 9067.29298  16.3%     -    0s
     0     0 9068.71401    0   33 10835.0000 9068.71401  16.3%     -    0s
     0     2 9070.89199    0   33 10835.0000 9070.89199  16.3%     -    0s
H   51    64                    10833.000000 9157.15180  15.5%  43.5    0s
H  113   131                    10831.000000 9157.15180  15.5%  38.2    0s
H  115   131                    10746.000000 9157.15180  14.8%  37.7    0s
H  770   706                    10674.000000 9297.40139  12.9%  19.5    0s
 32218 11823 10490.0420   28   10 10674.0000 10022.5356  6.10%  23.8    5s
 73595 17907 10615.3109   29   10 10674.0000 10209.2268  4.35%  25.2   10s
 114361 15329     cutoff   33      10674.0000 10358.4944  2.96%  25.8   15s

Cutting planes:
  Gomory: 4
  Lift-and-project: 20
  Cover: 80
  Implied bound: 23
  Dual implied bound: 24
  MIR: 201
  Flow cover: 300
  Flow path: 32
  Inf proof: 3
  Zero half: 11
  Network: 52
  Relax-and-lift: 2

Explored 150068 nodes (3768755 simplex iterations) in 19.32 seconds (28.05 work units)
Thread count was 16 (of 16 available processors)

Solution count 10: 10674 10746 10831 ... 11359

Optimal solution found (tolerance 1.00e-04)
Best objective 1.067400000000e+04, best bound 1.067400000000e+04, gap 0.0000%
